; benchmark generated from python API
(set-info :status unknown)
(declare-fun S_5 () Real)
(declare-fun L_1 () Real)
(declare-fun A_1 () Real)
(declare-fun S_4 () Real)
(declare-fun L_0 () Real)
(declare-fun A_0 () Real)
(declare-fun A_4 () Real)
(declare-fun A_5 () Real)
(declare-fun A_3 () Real)
(declare-fun A_2 () Real)
(declare-fun S_3 () Real)
(declare-fun S_2 () Real)
(declare-fun S_1 () Real)
(declare-fun S_0 () Real)
(declare-fun C () Real)
(declare-fun L_2 () Real)
(declare-fun B () Real)
(declare-fun a () Real)
(declare-fun L0 () Real)
(assert
 (exists ((I_0 Real) (I_1 Real) (I_2 Real) (I_3 Real) (I_4 Real) (I_5 Real) (L_3 Real) (L_4 Real) (L_5 Real) )(let ((?x103 (- A_1 L_1)))
 (let (($x152 (<= ?x103 S_5)))
 (let ((?x43 (- A_0 L_0)))
 (let (($x151 (<= ?x43 S_4)))
 (let (($x150 (> ?x103 S_4)))
 (let (($x149 (>= A_5 A_4)))
 (let (($x148 (>= A_4 A_3)))
 (let (($x147 (>= A_3 A_2)))
 (let (($x146 (>= A_2 A_1)))
 (let (($x145 (>= A_1 A_0)))
 (let (($x143 (>= S_5 S_4)))
 (let (($x140 (>= S_4 S_3)))
 (let (($x137 (>= S_3 S_2)))
 (let (($x134 (>= S_2 S_1)))
 (let (($x131 (>= S_1 S_0)))
 (let ((?x176 (- A_5 L_5)))
 (let ((?x101 (* C 1.0)))
 (let ((?x177 (+ I_4 ?x101)))
 (let (($x185 (= I_4 (ite (< (+ I_3 ?x101) (- A_4 L_4)) (+ I_3 ?x101) (- A_4 L_4)))))
 (let (($x190 (= I_3 (ite (< (+ I_2 ?x101) (- A_3 L_3)) (+ I_2 ?x101) (- A_3 L_3)))))
 (let ((?x108 (- A_2 L_2)))
 (let ((?x191 (+ I_1 ?x101)))
 (let (($x202 (> (- (- A_5 L_4) I_5) B)))
 (let (($x212 (> (- (- A_4 L_3) I_4) B)))
 (let (($x221 (> (- (- A_3 L_2) I_3) B)))
 (let (($x229 (> (- (- A_2 L_1) I_2) B)))
 (let (($x237 (> (- (- A_1 L_0) I_1) B)))
 (let (($x50 (= a 1.0)))
 (let ((?x46 (* 5.0 a)))
 (let (($x48 (>= B ?x46)))
 (let (($x47 (>= C ?x46)))
 (let (($x42 (>= L0 0.0)))
 (let (($x41 (>= L_0 L0)))
 (let (($x40 (>= L_0 0.0)))
 (and $x40 $x41 $x42 (<= I_0 ?x43) $x47 $x48 $x50 (=> $x237 (= L_1 (- (- A_1 I_1) B))) (=> (not $x237) (= L_1 L_0)) (=> $x229 (= L_2 (- (- A_2 I_2) B))) (=> (not $x229) (= L_2 L_1)) (=> $x221 (= L_3 (- (- A_3 I_3) B))) (=> (not $x221) (= L_3 L_2)) (=> $x212 (= L_4 (- (- A_4 I_4) B))) (=> (not $x212) (= L_4 L_3)) (=> $x202 (= L_5 (- (- A_5 I_5) B))) (=> (not $x202) (= L_5 L_4)) (= I_1 (ite (< (+ I_0 ?x101) ?x103) (+ I_0 ?x101) ?x103)) (= I_2 (ite (< ?x191 ?x108) ?x191 ?x108)) $x190 $x185 (= I_5 (ite (< ?x177 ?x176) ?x177 ?x176)) (>= S_0 (- I_0 ?x101)) (<= S_0 I_0) (>= S_1 I_0) $x131 (<= S_1 I_1) (>= S_2 I_1) $x134 (<= S_2 I_2) (>= S_3 I_2) $x137 (<= S_3 I_3) (>= S_4 I_3) $x140 (<= S_4 I_4) (>= S_5 I_4) $x143 (<= S_5 I_5) $x145 $x146 $x147 $x148 $x149 $x150 $x151 $x152))))))))))))))))))))))))))))))))))))
 )
(check-sat)
